p cnf 3016
-17 -257
-18 -91
-19 -94
-20 -97
-21 -100
-22 -103
-23 -106
-24 -109
-25 -112
-26 -299
-27 -305
-28 -311
-29 -317
-30 -323
-31 -329
-32 -335
-33 -341
-34 -368
-35 -387
-36 -405
-37 -415
-38 -434
-39 -453
-40 -471
-41 -481
-42 -500
-43 -519
-44 -537
-45 -547
-46 -566
-47 -585
-48 -603
-49 -613
-50 -632
-51 -651
-52 -669
-53 -679
-54 -698
-55 -717
-56 -735
-57 -745
-58 -764
-59 -783
-60 -801
-61 -811
-62 -830
-63 -849
-64 -867
-65 -877
-66 -934
-67 -940
-68 1
-68 -26
-1 26 68
-69 2
-69 -27
-2 27 69
-70 3
-70 -28
-3 28 70
-71 4
-71 -29
-4 29 71
-72 5
-72 -30
-5 30 72
-73 6
-73 -31
-6 31 73
-74 7
-74 -32
-7 32 74
-75 8
-75 -33
-8 33 75
-76 -68
-76 69
68 -69 76
-77 -68
-77 -76
68 76 77
-78 70
-78 77
-70 -77 78
-79 77
-79 -78
-77 78 79
-80 71
-80 79
-71 -79 80
-81 79
-81 -80
-79 80 81
-82 72
-82 81
-72 -81 82
-83 81
-83 -82
-81 82 83
-84 73
-84 83
-73 -83 84
-85 83
-85 -84
-83 84 85
-86 74
-86 85
-74 -85 86
-87 85
-87 -86
-85 86 87
-88 75
-88 87
-75 -87 88
-89 -17
-89 68
17 -68 89
-90 17
-90 18
-17 -18 90
-91 -89
-91 -90
89 90 91
-92 -17
-92 76
17 -76 92
-93 17
-93 19
-17 -19 93
-94 -92
-94 -93
92 93 94
-95 -17
-95 78
17 -78 95
-96 17
-96 20
-17 -20 96
-97 -95
-97 -96
95 96 97
-98 -17
-98 80
17 -80 98
-99 17
-99 21
-17 -21 99
-100 -98
-100 -99
98 99 100
-101 -17
-101 82
17 -82 101
-102 17
-102 22
-17 -22 102
-103 -101
-103 -102
101 102 103
-104 -17
-104 84
17 -84 104
-105 17
-105 23
-17 -23 105
-106 -104
-106 -105
104 105 106
-107 -17
-107 86
17 -86 107
-108 17
-108 24
-17 -24 108
-109 -107
-109 -108
107 108 109
-110 -17
-110 88
17 -88 110
-111 17
-111 25
-17 -25 111
-112 -110
-112 -111
110 111 112
-113 1
-113 -91
-1 91 113
-114 2
-114 -94
-2 94 114
-115 3
-115 -97
-3 97 115
-116 4
-116 -100
-4 100 116
-117 5
-117 -103
-5 103 117
-118 6
-118 -106
-6 106 118
-119 7
-119 -109
-7 109 119
-120 8
-120 -112
-8 112 120
-121 34
-121 -35
-34 35 121
-122 -36
-122 -37
36 37 122
-123 121
-123 122
-121 -122 123
-124 -34
-124 -35
34 35 124
-125 -36
-125 37
36 -37 125
-126 124
-126 125
-124 -125 126
-127 -123
-127 -126
123 126 127
-128 113
-128 -127
-113 127 128
-129 38
-129 -39
-38 39 129
-130 -40
-130 -41
40 41 130
-131 129
-131 130
-129 -130 131
-132 -38
-132 -39
38 39 132
-133 -40
-133 41
40 -41 133
-134 132
-134 133
-132 -133 134
-135 -131
-135 -134
131 134 135
-136 114
-136 -135
-114 135 136
-137 42
-137 -43
-42 43 137
-138 -44
-138 -45
44 45 138
-139 137
-139 138
-137 -138 139
-140 -42
-140 -43
42 43 140
-141 -44
-141 45
44 -45 141
-142 140
-142 141
-140 -141 142
-143 -139
-143 -142
139 142 143
-144 115
-144 -143
-115 143 144
-145 46
-145 -47
-46 47 145
-146 -48
-146 -49
48 49 146
-147 145
-147 146
-145 -146 147
-148 -46
-148 -47
46 47 148
-149 -48
-149 49
48 -49 149
-150 148
-150 149
-148 -149 150
-151 -147
-151 -150
147 150 151
-152 116
-152 -151
-116 151 152
-153 50
-153 -51
-50 51 153
-154 -52
-154 -53
52 53 154
-155 153
-155 154
-153 -154 155
-156 -50
-156 -51
50 51 156
-157 -52
-157 53
52 -53 157
-158 156
-158 157
-156 -157 158
-159 -155
-159 -158
155 158 159
-160 117
-160 -159
-117 159 160
-161 54
-161 -55
-54 55 161
-162 -56
-162 -57
56 57 162
-163 161
-163 162
-161 -162 163
-164 -54
-164 -55
54 55 164
-165 -56
-165 57
56 -57 165
-166 164
-166 165
-164 -165 166
-167 -163
-167 -166
163 166 167
-168 118
-168 -167
-118 167 168
-169 58
-169 -59
-58 59 169
-170 -60
-170 -61
60 61 170
-171 169
-171 170
-169 -170 171
-172 -58
-172 -59
58 59 172
-173 -60
-173 61
60 -61 173
-174 172
-174 173
-172 -173 174
-175 -171
-175 -174
171 174 175
-176 119
-176 -175
-119 175 176
-177 62
-177 -63
-62 63 177
-178 -64
-178 -65
64 65 178
-179 177
-179 178
-177 -178 179
-180 -62
-180 -63
62 63 180
-181 -64
-181 65
64 -65 181
-182 180
-182 181
-180 -181 182
-183 -179
-183 -182
179 182 183
-184 120
-184 -183
-120 183 184
-185 -128
-185 -136
128 136 185
-186 -144
-186 -152
144 152 186
-187 -160
-187 -168
160 168 187
-188 -176
-188 -184
176 184 188
-189 185
-189 186
-185 -186 189
-190 187
-190 188
-187 -188 190
-191 189
-191 190
-189 -190 191
-192 -34
-192 35
34 -35 192
-193 36
-193 -37
-36 37 193
-194 192
-194 193
-192 -193 194
-195 36
-195 37
-36 -37 195
-196 121
-196 195
-121 -195 196
-197 -194
-197 -196
194 196 197
-198 113
-198 -197
-113 197 198
-199 -38
-199 39
38 -39 199
-200 40
-200 -41
-40 41 200
-201 199
-201 200
-199 -200 201
-202 40
-202 41
-40 -41 202
-203 129
-203 202
-129 -202 203
-204 -201
-204 -203
201 203 204
-205 114
-205 -204
-114 204 205
-206 -42
-206 43
42 -43 206
-207 44
-207 -45
-44 45 207
-208 206
-208 207
-206 -207 208
-209 44
-209 45
-44 -45 209
-210 137
-210 209
-137 -209 210
-211 -208
-211 -210
208 210 211
-212 115
-212 -211
-115 211 212
-213 -46
-213 47
46 -47 213
-214 48
-214 -49
-48 49 214
-215 213
-215 214
-213 -214 215
-216 48
-216 49
-48 -49 216
-217 145
-217 216
-145 -216 217
-218 -215
-218 -217
215 217 218
-219 116
-219 -218
-116 218 219
-220 -50
-220 51
50 -51 220
-221 52
-221 -53
-52 53 221
-222 220
-222 221
-220 -221 222
-223 52
-223 53
-52 -53 223
-224 153
-224 223
-153 -223 224
-225 -222
-225 -224
222 224 225
-226 117
-226 -225
-117 225 226
-227 -54
-227 55
54 -55 227
-228 56
-228 -57
-56 57 228
-229 227
-229 228
-227 -228 229
-230 56
-230 57
-56 -57 230
-231 161
-231 230
-161 -230 231
-232 -229
-232 -231
229 231 232
-233 118
-233 -232
-118 232 233
-234 -58
-234 59
58 -59 234
-235 60
-235 -61
-60 61 235
-236 234
-236 235
-234 -235 236
-237 60
-237 61
-60 -61 237
-238 169
-238 237
-169 -237 238
-239 -236
-239 -238
236 238 239
-240 119
-240 -239
-119 239 240
-241 -62
-241 63
62 -63 241
-242 64
-242 -65
-64 65 242
-243 241
-243 242
-241 -242 243
-244 64
-244 65
-64 -65 244
-245 177
-245 244
-177 -244 245
-246 -243
-246 -245
243 245 246
-247 120
-247 -246
-120 246 247
-248 -198
-248 -205
198 205 248
-249 -212
-249 -219
212 219 249
-250 -226
-250 -233
226 233 250
-251 -240
-251 -247
240 247 251
-252 248
-252 249
-248 -249 252
-253 250
-253 251
-250 -251 253
-254 252
-254 253
-252 -253 254
-255 17
-255 254
-17 -254 255
-256 191
-256 255
-191 -255 256
-257 191
-257 -256
-191 256 257
-258 -26
-258 27
26 -27 258
-259 -26
-259 -258
26 258 259
-260 28
-260 259
-28 -259 260
-261 259
-261 -260
-259 260 261
-262 29
-262 261
-29 -261 262
-263 261
-263 -262
-261 262 263
-264 30
-264 263
-30 -263 264
-265 263
-265 -264
-263 264 265
-266 31
-266 265
-31 -265 266
-267 265
-267 -266
-265 266 267
-268 32
-268 267
-32 -267 268
-269 267
-269 -268
-267 268 269
-270 33
-270 269
-33 -269 270
-271 124
-271 195
-124 -195 271
-272 113
-272 271
-113 -271 272
-273 132
-273 202
-132 -202 273
-274 114
-274 273
-114 -273 274
-275 140
-275 209
-140 -209 275
-276 115
-276 275
-115 -275 276
-277 148
-277 216
-148 -216 277
-278 116
-278 277
-116 -277 278
-279 156
-279 223
-156 -223 279
-280 117
-280 279
-117 -279 280
-281 164
-281 230
-164 -230 281
-282 118
-282 281
-118 -281 282
-283 172
-283 237
-172 -237 283
-284 119
-284 283
-119 -283 284
-285 180
-285 244
-180 -244 285
-286 120
-286 285
-120 -285 286
-287 -272
-287 -274
272 274 287
-288 -276
-288 -278
276 278 288
-289 -280
-289 -282
280 282 289
-290 -284
-290 -286
284 286 290
-291 287
-291 288
-287 -288 291
-292 289
-292 290
-289 -290 292
-293 291
-293 292
-291 -292 293
-294 121
-294 193
-121 -193 294
-295 113
-295 294
-113 -294 295
-296 26
-296 -293
-26 293 296
-297 26
-297 -296
-26 296 297
-298 -295
-298 297
295 -297 298
-299 -295
-299 -298
295 298 299
-300 129
-300 200
-129 -200 300
-301 114
-301 300
-114 -300 301
-302 258
-302 -293
-258 293 302
-303 27
-303 -302
-27 302 303
-304 -301
-304 303
301 -303 304
-305 -301
-305 -304
301 304 305
-306 137
-306 207
-137 -207 306
-307 115
-307 306
-115 -306 307
-308 260
-308 -293
-260 293 308
-309 28
-309 -308
-28 308 309
-310 -307
-310 309
307 -309 310
-311 -307
-311 -310
307 310 311
-312 145
-312 214
-145 -214 312
-313 116
-313 312
-116 -312 313
-314 262
-314 -293
-262 293 314
-315 29
-315 -314
-29 314 315
-316 -313
-316 315
313 -315 316
-317 -313
-317 -316
313 316 317
-318 153
-318 221
-153 -221 318
-319 117
-319 318
-117 -318 319
-320 264
-320 -293
-264 293 320
-321 30
-321 -320
-30 320 321
-322 -319
-322 321
319 -321 322
-323 -319
-323 -322
319 322 323
-324 161
-324 228
-161 -228 324
-325 118
-325 324
-118 -324 325
-326 266
-326 -293
-266 293 326
-327 31
-327 -326
-31 326 327
-328 -325
-328 327
325 -327 328
-329 -325
-329 -328
325 328 329
-330 169
-330 235
-169 -235 330
-331 119
-331 330
-119 -330 331
-332 268
-332 -293
-268 293 332
-333 32
-333 -332
-32 332 333
-334 -331
-334 333
331 -333 334
-335 -331
-335 -334
331 334 335
-336 177
-336 242
-177 -242 336
-337 120
-337 336
-120 -336 337
-338 270
-338 -293
-270 293 338
-339 33
-339 -338
-33 338 339
-340 -337
-340 339
337 -339 340
-341 -337
-341 -340
337 340 341
-342 -26
-342 -27
26 27 342
-343 -28
-343 -29
28 29 343
-344 -30
-344 -31
30 31 344
-345 -32
-345 -33
32 33 345
-346 342
-346 343
-342 -343 346
-347 344
-347 345
-344 -345 347
-348 346
-348 347
-346 -347 348
-349 -66
-349 67
66 -67 349
-350 -35
-350 -124
35 124 350
-351 36
-351 124
-36 -124 351
-352 -36
-352 -350
36 350 352
-353 -351
-353 -352
351 352 353
-354 -9
-354 34
9 -34 354
-355 34
-355 -354
-34 354 355
-356 35
-356 -355
-35 355 356
-357 9
-357 -34
-9 34 357
-358 -35
-358 357
35 -357 358
-359 -192
-359 -358
192 358 359
-360 36
-360 356
-36 -356 360
-361 -36
-361 -359
36 359 361
-362 -360
-362 -361
360 361 362
-363 37
-363 -353
-37 353 363
-364 -37
-364 -362
37 362 364
-365 -363
-365 -364
363 364 365
-366 113
-366 -365
-113 365 366
-367 34
-367 -113
-34 113 367
-368 -366
-368 -367
366 367 368
-369 34
-369 348
-34 -348 369
-370 -35
-370 369
35 -369 370
-371 -192
-371 -370
192 370 371
-372 36
-372 121
-36 -121 372
-373 -36
-373 -371
36 371 373
-374 -372
-374 -373
372 373 374
-375 35
-375 -356
-35 356 375
-376 -34
-376 -349
34 349 376
-377 35
-377 376
-35 -376 377
-378 -121
-378 -377
121 377 378
-379 36
-379 -375
-36 375 379
-380 -36
-380 -378
36 378 380
-381 -379
-381 -380
379 380 381
-382 37
-382 -374
-37 374 382
-383 -37
-383 -381
37 381 383
-384 -382
-384 -383
382 383 384
-385 113
-385 -384
-113 384 385
-386 35
-386 -113
-35 113 386
-387 -385
-387 -386
385 386 387
-388 34
-388 -348
-34 348 388
-389 34
-389 35
-34 -35 389
-390 -35
-390 388
35 -388 390
-391 -389
-391 -390
389 390 391
-392 -35
-392 36
35 -36 392
-393 -36
-393 -391
36 391 393
-394 -392
-394 -393
392 393 394
-395 -34
-395 349
34 -349 395
-396 -34
-396 -395
34 395 396
-397 35
-397 -396
-35 396 397
-398 -36
-398 397
36 -397 398
-399 -379
-399 -398
379 398 399
-400 37
-400 -394
-37 394 400
-401 -37
-401 -399
37 399 401
-402 -400
-402 -401
400 401 402
-403 113
-403 -402
-113 402 403
-404 36
-404 -113
-36 113 404
-405 -403
-405 -404
403 404 405
-406 36
-406 -392
-36 392 406
-407 9
-407 34
-9 -34 407
-408 35
-408 407
-35 -407 408
-409 36
-409 408
-36 -408 409
-410 37
-410 -406
-37 406 410
-411 -37
-411 409
37 -409 411
-412 -410
-412 -411
410 411 412
-413 113
-413 -412
-113 412 413
-414 37
-414 -113
-37 113 414
-415 -413
-415 -414
413 414 415
-416 -39
-416 -132
39 132 416
-417 40
-417 132
-40 -132 417
-418 -40
-418 -416
40 416 418
-419 -417
-419 -418
417 418 419
-420 -10
-420 38
10 -38 420
-421 38
-421 -420
-38 420 421
-422 39
-422 -421
-39 421 422
-423 10
-423 -38
-10 38 423
-424 -39
-424 423
39 -423 424
-425 -199
-425 -424
199 424 425
-426 40
-426 422
-40 -422 426
-427 -40
-427 -425
40 425 427
-428 -426
-428 -427
426 427 428
-429 41
-429 -419
-41 419 429
-430 -41
-430 -428
41 428 430
-431 -429
-431 -430
429 430 431
-432 114
-432 -431
-114 431 432
-433 38
-433 -114
-38 114 433
-434 -432
-434 -433
432 433 434
-435 38
-435 348
-38 -348 435
-436 -39
-436 435
39 -435 436
-437 -199
-437 -436
199 436 437
-438 40
-438 129
-40 -129 438
-439 -40
-439 -437
40 437 439
-440 -438
-440 -439
438 439 440
-441 39
-441 -422
-39 422 441
-442 -38
-442 -349
38 349 442
-443 39
-443 442
-39 -442 443
-444 -129
-444 -443
129 443 444
-445 40
-445 -441
-40 441 445
-446 -40
-446 -444
40 444 446
-447 -445
-447 -446
445 446 447
-448 41
-448 -440
-41 440 448
-449 -41
-449 -447
41 447 449
-450 -448
-450 -449
448 449 450
-451 114
-451 -450
-114 450 451
-452 39
-452 -114
-39 114 452
-453 -451
-453 -452
451 452 453
-454 38
-454 -348
-38 348 454
-455 38
-455 39
-38 -39 455
-456 -39
-456 454
39 -454 456
-457 -455
-457 -456
455 456 457
-458 -39
-458 40
39 -40 458
-459 -40
-459 -457
40 457 459
-460 -458
-460 -459
458 459 460
-461 -38
-461 349
38 -349 461
-462 -38
-462 -461
38 461 462
-463 39
-463 -462
-39 462 463
-464 -40
-464 463
40 -463 464
-465 -445
-465 -464
445 464 465
-466 41
-466 -460
-41 460 466
-467 -41
-467 -465
41 465 467
-468 -466
-468 -467
466 467 468
-469 114
-469 -468
-114 468 469
-470 40
-470 -114
-40 114 470
-471 -469
-471 -470
469 470 471
-472 40
-472 -458
-40 458 472
-473 10
-473 38
-10 -38 473
-474 39
-474 473
-39 -473 474
-475 40
-475 474
-40 -474 475
-476 41
-476 -472
-41 472 476
-477 -41
-477 475
41 -475 477
-478 -476
-478 -477
476 477 478
-479 114
-479 -478
-114 478 479
-480 41
-480 -114
-41 114 480
-481 -479
-481 -480
479 480 481
-482 -43
-482 -140
43 140 482
-483 44
-483 140
-44 -140 483
-484 -44
-484 -482
44 482 484
-485 -483
-485 -484
483 484 485
-486 -11
-486 42
11 -42 486
-487 42
-487 -486
-42 486 487
-488 43
-488 -487
-43 487 488
-489 11
-489 -42
-11 42 489
-490 -43
-490 489
43 -489 490
-491 -206
-491 -490
206 490 491
-492 44
-492 488
-44 -488 492
-493 -44
-493 -491
44 491 493
-494 -492
-494 -493
492 493 494
-495 45
-495 -485
-45 485 495
-496 -45
-496 -494
45 494 496
-497 -495
-497 -496
495 496 497
-498 115
-498 -497
-115 497 498
-499 42
-499 -115
-42 115 499
-500 -498
-500 -499
498 499 500
-501 42
-501 348
-42 -348 501
-502 -43
-502 501
43 -501 502
-503 -206
-503 -502
206 502 503
-504 44
-504 137
-44 -137 504
-505 -44
-505 -503
44 503 505
-506 -504
-506 -505
504 505 506
-507 43
-507 -488
-43 488 507
-508 -42
-508 -349
42 349 508
-509 43
-509 508
-43 -508 509
-510 -137
-510 -509
137 509 510
-511 44
-511 -507
-44 507 511
-512 -44
-512 -510
44 510 512
-513 -511
-513 -512
511 512 513
-514 45
-514 -506
-45 506 514
-515 -45
-515 -513
45 513 515
-516 -514
-516 -515
514 515 516
-517 115
-517 -516
-115 516 517
-518 43
-518 -115
-43 115 518
-519 -517
-519 -518
517 518 519
-520 42
-520 -348
-42 348 520
-521 42
-521 43
-42 -43 521
-522 -43
-522 520
43 -520 522
-523 -521
-523 -522
521 522 523
-524 -43
-524 44
43 -44 524
-525 -44
-525 -523
44 523 525
-526 -524
-526 -525
524 525 526
-527 -42
-527 349
42 -349 527
-528 -42
-528 -527
42 527 528
-529 43
-529 -528
-43 528 529
-530 -44
-530 529
44 -529 530
-531 -511
-531 -530
511 530 531
-532 45
-532 -526
-45 526 532
-533 -45
-533 -531
45 531 533
-534 -532
-534 -533
532 533 534
-535 115
-535 -534
-115 534 535
-536 44
-536 -115
-44 115 536
-537 -535
-537 -536
535 536 537
-538 44
-538 -524
-44 524 538
-539 11
-539 42
-11 -42 539
-540 43
-540 539
-43 -539 540
-541 44
-541 540
-44 -540 541
-542 45
-542 -538
-45 538 542
-543 -45
-543 541
45 -541 543
-544 -542
-544 -543
542 543 544
-545 115
-545 -544
-115 544 545
-546 45
-546 -115
-45 115 546
-547 -545
-547 -546
545 546 547
-548 -47
-548 -148
47 148 548
-549 48
-549 148
-48 -148 549
-550 -48
-550 -548
48 548 550
-551 -549
-551 -550
549 550 551
-552 -12
-552 46
12 -46 552
-553 46
-553 -552
-46 552 553
-554 47
-554 -553
-47 553 554
-555 12
-555 -46
-12 46 555
-556 -47
-556 555
47 -555 556
-557 -213
-557 -556
213 556 557
-558 48
-558 554
-48 -554 558
-559 -48
-559 -557
48 557 559
-560 -558
-560 -559
558 559 560
-561 49
-561 -551
-49 551 561
-562 -49
-562 -560
49 560 562
-563 -561
-563 -562
561 562 563
-564 116
-564 -563
-116 563 564
-565 46
-565 -116
-46 116 565
-566 -564
-566 -565
564 565 566
-567 46
-567 348
-46 -348 567
-568 -47
-568 567
47 -567 568
-569 -213
-569 -568
213 568 569
-570 48
-570 145
-48 -145 570
-571 -48
-571 -569
48 569 571
-572 -570
-572 -571
570 571 572
-573 47
-573 -554
-47 554 573
-574 -46
-574 -349
46 349 574
-575 47
-575 574
-47 -574 575
-576 -145
-576 -575
145 575 576
-577 48
-577 -573
-48 573 577
-578 -48
-578 -576
48 576 578
-579 -577
-579 -578
577 578 579
-580 49
-580 -572
-49 572 580
-581 -49
-581 -579
49 579 581
-582 -580
-582 -581
580 581 582
-583 116
-583 -582
-116 582 583
-584 47
-584 -116
-47 116 584
-585 -583
-585 -584
583 584 585
-586 46
-586 -348
-46 348 586
-587 46
-587 47
-46 -47 587
-588 -47
-588 586
47 -586 588
-589 -587
-589 -588
587 588 589
-590 -47
-590 48
47 -48 590
-591 -48
-591 -589
48 589 591
-592 -590
-592 -591
590 591 592
-593 -46
-593 349
46 -349 593
-594 -46
-594 -593
46 593 594
-595 47
-595 -594
-47 594 595
-596 -48
-596 595
48 -595 596
-597 -577
-597 -596
577 596 597
-598 49
-598 -592
-49 592 598
-599 -49
-599 -597
49 597 599
-600 -598
-600 -599
598 599 600
-601 116
-601 -600
-116 600 601
-602 48
-602 -116
-48 116 602
-603 -601
-603 -602
601 602 603
-604 48
-604 -590
-48 590 604
-605 12
-605 46
-12 -46 605
-606 47
-606 605
-47 -605 606
-607 48
-607 606
-48 -606 607
-608 49
-608 -604
-49 604 608
-609 -49
-609 607
49 -607 609
-610 -608
-610 -609
608 609 610
-611 116
-611 -610
-116 610 611
-612 49
-612 -116
-49 116 612
-613 -611
-613 -612
611 612 613
-614 -51
-614 -156
51 156 614
-615 52
-615 156
-52 -156 615
-616 -52
-616 -614
52 614 616
-617 -615
-617 -616
615 616 617
-618 -13
-618 50
13 -50 618
-619 50
-619 -618
-50 618 619
-620 51
-620 -619
-51 619 620
-621 13
-621 -50
-13 50 621
-622 -51
-622 621
51 -621 622
-623 -220
-623 -622
220 622 623
-624 52
-624 620
-52 -620 624
-625 -52
-625 -623
52 623 625
-626 -624
-626 -625
624 625 626
-627 53
-627 -617
-53 617 627
-628 -53
-628 -626
53 626 628
-629 -627
-629 -628
627 628 629
-630 117
-630 -629
-117 629 630
-631 50
-631 -117
-50 117 631
-632 -630
-632 -631
630 631 632
-633 50
-633 348
-50 -348 633
-634 -51
-634 633
51 -633 634
-635 -220
-635 -634
220 634 635
-636 52
-636 153
-52 -153 636
-637 -52
-637 -635
52 635 637
-638 -636
-638 -637
636 637 638
-639 51
-639 -620
-51 620 639
-640 -50
-640 -349
50 349 640
-641 51
-641 640
-51 -640 641
-642 -153
-642 -641
153 641 642
-643 52
-643 -639
-52 639 643
-644 -52
-644 -642
52 642 644
-645 -643
-645 -644
643 644 645
-646 53
-646 -638
-53 638 646
-647 -53
-647 -645
53 645 647
-648 -646
-648 -647
646 647 648
-649 117
-649 -648
-117 648 649
-650 51
-650 -117
-51 117 650
-651 -649
-651 -650
649 650 651
-652 50
-652 -348
-50 348 652
-653 50
-653 51
-50 -51 653
-654 -51
-654 652
51 -652 654
-655 -653
-655 -654
653 654 655
-656 -51
-656 52
51 -52 656
-657 -52
-657 -655
52 655 657
-658 -656
-658 -657
656 657 658
-659 -50
-659 349
50 -349 659
-660 -50
-660 -659
50 659 660
-661 51
-661 -660
-51 660 661
-662 -52
-662 661
52 -661 662
-663 -643
-663 -662
643 662 663
-664 53
-664 -658
-53 658 664
-665 -53
-665 -663
53 663 665
-666 -664
-666 -665
664 665 666
-667 117
-667 -666
-117 666 667
-668 52
-668 -117
-52 117 668
-669 -667
-669 -668
667 668 669
-670 52
-670 -656
-52 656 670
-671 13
-671 50
-13 -50 671
-672 51
-672 671
-51 -671 672
-673 52
-673 672
-52 -672 673
-674 53
-674 -670
-53 670 674
-675 -53
-675 673
53 -673 675
-676 -674
-676 -675
674 675 676
-677 117
-677 -676
-117 676 677
-678 53
-678 -117
-53 117 678
-679 -677
-679 -678
677 678 679
-680 -55
-680 -164
55 164 680
-681 56
-681 164
-56 -164 681
-682 -56
-682 -680
56 680 682
-683 -681
-683 -682
681 682 683
-684 -14
-684 54
14 -54 684
-685 54
-685 -684
-54 684 685
-686 55
-686 -685
-55 685 686
-687 14
-687 -54
-14 54 687
-688 -55
-688 687
55 -687 688
-689 -227
-689 -688
227 688 689
-690 56
-690 686
-56 -686 690
-691 -56
-691 -689
56 689 691
-692 -690
-692 -691
690 691 692
-693 57
-693 -683
-57 683 693
-694 -57
-694 -692
57 692 694
-695 -693
-695 -694
693 694 695
-696 118
-696 -695
-118 695 696
-697 54
-697 -118
-54 118 697
-698 -696
-698 -697
696 697 698
-699 54
-699 348
-54 -348 699
-700 -55
-700 699
55 -699 700
-701 -227
-701 -700
227 700 701
-702 56
-702 161
-56 -161 702
-703 -56
-703 -701
56 701 703
-704 -702
-704 -703
702 703 704
-705 55
-705 -686
-55 686 705
-706 -54
-706 -349
54 349 706
-707 55
-707 706
-55 -706 707
-708 -161
-708 -707
161 707 708
-709 56
-709 -705
-56 705 709
-710 -56
-710 -708
56 708 710
-711 -709
-711 -710
709 710 711
-712 57
-712 -704
-57 704 712
-713 -57
-713 -711
57 711 713
-714 -712
-714 -713
712 713 714
-715 118
-715 -714
-118 714 715
-716 55
-716 -118
-55 118 716
-717 -715
-717 -716
715 716 717
-718 54
-718 -348
-54 348 718
-719 54
-719 55
-54 -55 719
-720 -55
-720 718
55 -718 720
-721 -719
-721 -720
719 720 721
-722 -55
-722 56
55 -56 722
-723 -56
-723 -721
56 721 723
-724 -722
-724 -723
722 723 724
-725 -54
-725 349
54 -349 725
-726 -54
-726 -725
54 725 726
-727 55
-727 -726
-55 726 727
-728 -56
-728 727
56 -727 728
-729 -709
-729 -728
709 728 729
-730 57
-730 -724
-57 724 730
-731 -57
-731 -729
57 729 731
-732 -730
-732 -731
730 731 732
-733 118
-733 -732
-118 732 733
-734 56
-734 -118
-56 118 734
-735 -733
-735 -734
733 734 735
-736 56
-736 -722
-56 722 736
-737 14
-737 54
-14 -54 737
-738 55
-738 737
-55 -737 738
-739 56
-739 738
-56 -738 739
-740 57
-740 -736
-57 736 740
-741 -57
-741 739
57 -739 741
-742 -740
-742 -741
740 741 742
-743 118
-743 -742
-118 742 743
-744 57
-744 -118
-57 118 744
-745 -743
-745 -744
743 744 745
-746 -59
-746 -172
59 172 746
-747 60
-747 172
-60 -172 747
-748 -60
-748 -746
60 746 748
-749 -747
-749 -748
747 748 749
-750 -15
-750 58
15 -58 750
-751 58
-751 -750
-58 750 751
-752 59
-752 -751
-59 751 752
-753 15
-753 -58
-15 58 753
-754 -59
-754 753
59 -753 754
-755 -234
-755 -754
234 754 755
-756 60
-756 752
-60 -752 756
-757 -60
-757 -755
60 755 757
-758 -756
-758 -757
756 757 758
-759 61
-759 -749
-61 749 759
-760 -61
-760 -758
61 758 760
-761 -759
-761 -760
759 760 761
-762 119
-762 -761
-119 761 762
-763 58
-763 -119
-58 119 763
-764 -762
-764 -763
762 763 764
-765 58
-765 348
-58 -348 765
-766 -59
-766 765
59 -765 766
-767 -234
-767 -766
234 766 767
-768 60
-768 169
-60 -169 768
-769 -60
-769 -767
60 767 769
-770 -768
-770 -769
768 769 770
-771 59
-771 -752
-59 752 771
-772 -58
-772 -349
58 349 772
-773 59
-773 772
-59 -772 773
-774 -169
-774 -773
169 773 774
-775 60
-775 -771
-60 771 775
-776 -60
-776 -774
60 774 776
-777 -775
-777 -776
775 776 777
-778 61
-778 -770
-61 770 778
-779 -61
-779 -777
61 777 779
-780 -778
-780 -779
778 779 780
-781 119
-781 -780
-119 780 781
-782 59
-782 -119
-59 119 782
-783 -781
-783 -782
781 782 783
-784 58
-784 -348
-58 348 784
-785 58
-785 59
-58 -59 785
-786 -59
-786 784
59 -784 786
-787 -785
-787 -786
785 786 787
-788 -59
-788 60
59 -60 788
-789 -60
-789 -787
60 787 789
-790 -788
-790 -789
788 789 790
-791 -58
-791 349
58 -349 791
-792 -58
-792 -791
58 791 792
-793 59
-793 -792
-59 792 793
-794 -60
-794 793
60 -793 794
-795 -775
-795 -794
775 794 795
-796 61
-796 -790
-61 790 796
-797 -61
-797 -795
61 795 797
-798 -796
-798 -797
796 797 798
-799 119
-799 -798
-119 798 799
-800 60
-800 -119
-60 119 800
-801 -799
-801 -800
799 800 801
-802 60
-802 -788
-60 788 802
-803 15
-803 58
-15 -58 803
-804 59
-804 803
-59 -803 804
-805 60
-805 804
-60 -804 805
-806 61
-806 -802
-61 802 806
-807 -61
-807 805
61 -805 807
-808 -806
-808 -807
806 807 808
-809 119
-809 -808
-119 808 809
-810 61
-810 -119
-61 119 810
-811 -809
-811 -810
809 810 811
-812 -63
-812 -180
63 180 812
-813 64
-813 180
-64 -180 813
-814 -64
-814 -812
64 812 814
-815 -813
-815 -814
813 814 815
-816 -16
-816 62
16 -62 816
-817 62
-817 -816
-62 816 817
-818 63
-818 -817
-63 817 818
-819 16
-819 -62
-16 62 819
-820 -63
-820 819
63 -819 820
-821 -241
-821 -820
241 820 821
-822 64
-822 818
-64 -818 822
-823 -64
-823 -821
64 821 823
-824 -822
-824 -823
822 823 824
-825 65
-825 -815
-65 815 825
-826 -65
-826 -824
65 824 826
-827 -825
-827 -826
825 826 827
-828 120
-828 -827
-120 827 828
-829 62
-829 -120
-62 120 829
-830 -828
-830 -829
828 829 830
-831 62
-831 348
-62 -348 831
-832 -63
-832 831
63 -831 832
-833 -241
-833 -832
241 832 833
-834 64
-834 177
-64 -177 834
-835 -64
-835 -833
64 833 835
-836 -834
-836 -835
834 835 836
-837 63
-837 -818
-63 818 837
-838 -62
-838 -349
62 349 838
-839 63
-839 838
-63 -838 839
-840 -177
-840 -839
177 839 840
-841 64
-841 -837
-64 837 841
-842 -64
-842 -840
64 840 842
-843 -841
-843 -842
841 842 843
-844 65
-844 -836
-65 836 844
-845 -65
-845 -843
65 843 845
-846 -844
-846 -845
844 845 846
-847 120
-847 -846
-120 846 847
-848 63
-848 -120
-63 120 848
-849 -847
-849 -848
847 848 849
-850 62
-850 -348
-62 348 850
-851 62
-851 63
-62 -63 851
-852 -63
-852 850
63 -850 852
-853 -851
-853 -852
851 852 853
-854 -63
-854 64
63 -64 854
-855 -64
-855 -853
64 853 855
-856 -854
-856 -855
854 855 856
-857 -62
-857 349
62 -349 857
-858 -62
-858 -857
62 857 858
-859 63
-859 -858
-63 858 859
-860 -64
-860 859
64 -859 860
-861 -841
-861 -860
841 860 861
-862 65
-862 -856
-65 856 862
-863 -65
-863 -861
65 861 863
-864 -862
-864 -863
862 863 864
-865 120
-865 -864
-120 864 865
-866 64
-866 -120
-64 120 866
-867 -865
-867 -866
865 866 867
-868 64
-868 -854
-64 854 868
-869 16
-869 62
-16 -62 869
-870 63
-870 869
-63 -869 870
-871 64
-871 870
-64 -870 871
-872 65
-872 -868
-65 868 872
-873 -65
-873 871
65 -871 873
-874 -872
-874 -873
872 873 874
-875 120
-875 -874
-120 874 875
-876 65
-876 -120
-65 120 876
-877 -875
-877 -876
875 876 877
-878 122
-878 389
-122 -389 878
-879 113
-879 878
-113 -878 879
-880 130
-880 455
-130 -455 880
-881 114
-881 880
-114 -880 881
-882 138
-882 521
-138 -521 882
-883 115
-883 882
-115 -882 883
-884 146
-884 587
-146 -587 884
-885 116
-885 884
-116 -884 885
-886 154
-886 653
-154 -653 886
-887 117
-887 886
-117 -886 887
-888 162
-888 719
-162 -719 888
-889 118
-889 888
-118 -888 889
-890 170
-890 785
-170 -785 890
-891 119
-891 890
-119 -890 891
-892 178
-892 851
-178 -851 892
-893 120
-893 892
-120 -892 893
-894 -879
-894 -881
879 881 894
-895 -883
-895 -885
883 885 895
-896 -887
-896 -889
887 889 896
-897 -891
-897 -893
891 893 897
-898 894
-898 895
-894 -895 898
-899 896
-899 897
-896 -897 899
-900 898
-900 899
-898 -899 900
-901 125
-901 192
-125 -192 901
-902 113
-902 901
-113 -901 902
-903 133
-903 199
-133 -199 903
-904 114
-904 903
-114 -903 904
-905 141
-905 206
-141 -206 905
-906 115
-906 905
-115 -905 906
-907 149
-907 213
-149 -213 907
-908 116
-908 907
-116 -907 908
-909 157
-909 220
-157 -220 909
-910 117
-910 909
-117 -909 910
-911 165
-911 227
-165 -227 911
-912 118
-912 911
-118 -911 912
-913 173
-913 234
-173 -234 913
-914 119
-914 913
-119 -913 914
-915 181
-915 241
-181 -241 915
-916 120
-916 915
-120 -915 916
-917 -902
-917 -904
902 904 917
-918 -906
-918 -908
906 908 918
-919 -910
-919 -912
910 912 919
-920 -914
-920 -916
914 916 920
-921 917
-921 918
-917 -918 921
-922 919
-922 920
-919 -920 922
-923 921
-923 922
-921 -922 923
-924 66
-924 -67
-66 67 924
-925 -349
-925 -924
349 924 925
-926 66
-926 67
-66 -67 926
-927 -66
-927 -67
66 67 927
-928 -926
-928 -927
926 927 928
-929 -66
-929 -923
66 923 929
-930 66
-930 923
-66 -923 930
-931 -929
-931 -930
929 930 931
-932 -66
-932 -900
66 900 932
-933 900
-933 -931
-900 931 933
-934 -932
-934 -933
932 933 934
-935 -923
-935 -928
923 928 935
-936 67
-936 923
-67 -923 936
-937 -935
-937 -936
935 936 937
-938 -900
-938 -925
900 925 938
-939 900
-939 -937
-900 937 939
-940 -938
-940 -939
938 939 940
-941 193
-941 389
-193 -389 941
-942 -26
-942 941
26 -941 942
-943 200
-943 455
-200 -455 943
-944 -27
-944 943
27 -943 944
-945 207
-945 521
-207 -521 945
-946 -28
-946 945
28 -945 946
-947 214
-947 587
-214 -587 947
-948 -29
-948 947
29 -947 948
-949 221
-949 653
-221 -653 949
-950 -30
-950 949
30 -949 950
-951 228
-951 719
-228 -719 951
-952 -31
-952 951
31 -951 952
-953 235
-953 785
-235 -785 953
-954 -32
-954 953
32 -953 954
-955 242
-955 851
-242 -851 955
-956 -33
-956 955
33 -955 956
-957 942
-957 -944
-942 944 957
-958 -942
-958 944
942 -944 958
-959 -957
-959 -958
957 958 959
-960 942
-960 944
-942 -944 960
-961 -946
-961 -959
946 959 961
-962 946
-962 959
-946 -959 962
-963 -961
-963 -962
961 962 963
-964 946
-964 -959
-946 959 964
-965 960
-965 -964
-960 964 965
-966 -960
-966 964
960 -964 966
-967 -965
-967 -966
965 966 967
-968 960
-968 964
-960 -964 968
-969 -948
-969 -963
948 963 969
-970 948
-970 963
-948 -963 970
-971 -969
-971 -970
969 970 971
-972 948
-972 -963
-948 963 972
-973 -968
-973 -971
968 971 973
-974 968
-974 971
-968 -971 974
-975 -973
-975 -974
973 974 975
-976 968
-976 -971
-968 971 976
-977 -972
-977 -976
972 976 977
-978 -967
-978 977
967 -977 978
-979 967
-979 -977
-967 977 979
-980 -978
-980 -979
978 979 980
-981 -967
-981 -977
967 977 981
-982 -950
-982 -975
950 975 982
-983 950
-983 975
-950 -975 983
-984 -982
-984 -983
982 983 984
-985 950
-985 -975
-950 975 985
-986 -980
-986 -985
980 985 986
-987 980
-987 985
-980 -985 987
-988 -986
-988 -987
986 987 988
-989 -980
-989 985
980 -985 989
-990 981
-990 -989
-981 989 990
-991 -981
-991 989
981 -989 991
-992 -990
-992 -991
990 991 992
-993 981
-993 989
-981 -989 993
-994 -952
-994 -984
952 984 994
-995 952
-995 984
-952 -984 995
-996 -994
-996 -995
994 995 996
-997 952
-997 -984
-952 984 997
-998 -993
-998 -996
993 996 998
-999 993
-999 996
-993 -996 999
-1000 -998
-1000 -999
998 999 1000
-1001 993
-1001 -996
-993 996 1001
-1002 -997
-1002 -1001
997 1001 1002
-1003 -988
-1003 1002
988 -1002 1003
-1004 988
-1004 -1002
-988 1002 1004
-1005 -1003
-1005 -1004
1003 1004 1005
-1006 -988
-1006 -1002
988 1002 1006
-1007 -992
-1007 -1006
992 1006 1007
-1008 992
-1008 1006
-992 -1006 1008
-1009 -1007
-1009 -1008
1007 1008 1009
-1010 -992
-1010 1006
992 -1006 1010
-1011 -954
-1011 -1000
954 1000 1011
-1012 954
-1012 1000
-954 -1000 1012
-1013 -1011
-1013 -1012
1011 1012 1013
-1014 954
-1014 -1000
-954 1000 1014
-1015 -1010
-1015 -1013
1010 1013 1015
-1016 1010
-1016 1013
-1010 -1013 1016
-1017 -1015
-1017 -1016
1015 1016 1017
-1018 1010
-1018 -1013
-1010 1013 1018
-1019 -1014
-1019 -1018
1014 1018 1019
-1020 -1005
-1020 1019
1005 -1019 1020
-1021 1005
-1021 -1019
-1005 1019 1021
-1022 -1020
-1022 -1021
1020 1021 1022
-1023 -1005
-1023 -1019
1005 1019 1023
-1024 -1009
-1024 -1023
1009 1023 1024
-1025 1009
-1025 1023
-1009 -1023 1025
-1026 -1024
-1026 -1025
1024 1025 1026
-1027 -1009
-1027 1023
1009 -1023 1027
-1028 -956
-1028 -1017
956 1017 1028
-1029 956
-1029 1017
-956 -1017 1029
-1030 -1028
-1030 -1029
1028 1029 1030
-1031 956
-1031 -1017
-956 1017 1031
-1032 -1027
-1032 -1030
1027 1030 1032
-1033 1027
-1033 1030
-1027 -1030 1033
-1034 -1032
-1034 -1033
1032 1033 1034
-1035 1027
-1035 -1030
-1027 1030 1035
-1036 -1031
-1036 -1035
1031 1035 1036
-1037 -1022
-1037 1036
1022 -1036 1037
-1038 1022
-1038 -1036
-1022 1036 1038
-1039 -1037
-1039 -1038
1037 1038 1039
-1040 -1022
-1040 -1036
1022 1036 1040
-1041 -1026
-1041 -1040
1026 1040 1041
-1042 1026
-1042 1040
-1026 -1040 1042
-1043 -1041
-1043 -1042
1041 1042 1043
-1044 -1026
-1044 1040
1026 -1040 1044
-1045 -1034
-1045 -1039
1034 1039 1045
-1046 1043
-1046 1045
-1043 -1045 1046
-1047 1043
-1047 -1046
-1043 1046 1047
-1048 -1044
-1048 -1047
1044 1047 1048
-1049 -1044
-1049 -1048
1044 1048 1049
-1050 -348
-1050 -349
348 349 1050
-1051 -900
-1051 926
900 -926 1051
-1052 -923
-1052 927
923 -927 1052
-1053 1049
-1053 -1051
-1049 1051 1053
-1054 -1050
-1054 -1052
1050 1052 1054
-1055 1053
-1055 1054
-1053 -1054 1055
-1055
